61 21 
67 39 
68 29 
50 19 
79 68 
65 76 
85 87 
73 74 
35 97 
95 45 
56 99 
2 23 
79 66 
27 14 
79 79 
48 40 
0 68 
32 21 
97 82 
40 28 
2 6 
57 40 
45 30 
66 80 
79 61 
77 35 
12 79 
10 43 
45 89 
58 77 
20 6 
17 73 
26 1 
94 24 
36 86 
4 38 
44 61 
30 41 
43 96 
73 74 
9 50 
9 22 
81 71 
65 79 
13 75 
56 33 
34 25 
6 60 
27 52 
36 63 
